NAME : Problem-5-10-A
TYPE : HVRP
DIMENSION : 11
EDGE_WEIGHT_TYPE : EUC_2D

NODE_COORD_SECTION
1 20 20
2 37 52
3 49 49
5 20 26
6 40 30
8 17 63
9 31 62
12 42 41
14 5 25
17 52 41
21 57 58

DEMAND_SECTION
1 0
2 7
3 30
5 9
6 21
8 19
9 23
12 19
14 23
17 15
21 28

VEHICLE_TYPES
# id capacity fixed_cost var_cost
A 20 20 1 
B 30 35 1 
C 40 50 1
D 70 120 1
E 120 225 1 
END_VEHICLE_TYPES

DEPOT_SECTION
1
-1
EOF
